cost: 808.17
Route 1:           0    3   21   14    0
Route 2:           0    7   33   46   20    8   47    0
Route 3:           0   27   25   12    6   22    0
Route 4:           0   28   44   32   17   13    1   30   10    5   16    0
Route 5:           0   35   45   31   29   39   11    0
Route 6:           0   40   23   38   34    0
Route 7:           0   42   36   37   24    4    0
Route 8:           0   49   48   15   26   19   18    0
Route 9:           0   50   43    2    9   41    0
